p cnf 704 1618
1 0
2 0
3 0
4 0
5 0
6 0
7 0
8 0
9 0
10 0
-11 0
-12 0
-13 0
-14 0
-15 0
-16 0
-17 0
-18 0
-19 0
-20 0
21 22 0
23 22 0
-21 -23 -22 0
-1 22 -24 0
1 -22 -24 0
24 -22 -1 0
1 22 24 0
-24 0
25 26 0
27 26 0
-25 -27 -26 0
-23 26 -28 0
23 -26 -28 0
28 -26 -23 0
23 26 28 0
-28 0
25 29 0
30 29 0
-25 -30 -29 0
-27 29 -31 0
27 -29 -31 0
31 -29 -27 0
27 29 31 0
-31 0
32 33 0
34 33 0
-32 -34 -33 0
-2 33 -35 0
2 -33 -35 0
35 -33 -2 0
2 33 35 0
-35 0
36 37 0
38 37 0
-36 -38 -37 0
-34 37 -39 0
34 -37 -39 0
39 -37 -34 0
34 37 39 0
-39 0
38 -40 0
40 -38 0
41 42 0
43 42 0
-41 -43 -42 0
-3 42 -44 0
3 -42 -44 0
44 -42 -3 0
3 42 44 0
-44 0
45 46 0
47 46 0
-45 -47 -46 0
-43 46 -48 0
43 -46 -48 0
48 -46 -43 0
43 46 48 0
-48 0
49 50 0
51 50 0
-49 -51 -50 0
-47 50 -52 0
47 -50 -52 0
52 -50 -47 0
47 50 52 0
-52 0
53 54 0
55 54 0
-53 -55 -54 0
-51 54 -56 0
51 -54 -56 0
56 -54 -51 0
51 54 56 0
-56 0
57 58 0
59 58 0
-57 -59 -58 0
-55 58 -60 0
55 -58 -60 0
60 -58 -55 0
55 58 60 0
-60 0
61 62 0
63 62 0
-61 -63 -62 0
-59 62 -64 0
59 -62 -64 0
64 -62 -59 0
59 62 64 0
-64 0
57 65 0
61 65 0
66 65 0
-57 -61 -66 -65 0
-63 65 -67 0
63 -65 -67 0
67 -65 -63 0
63 65 67 0
-67 0
68 69 0
70 69 0
-68 -70 -69 0
-4 69 -71 0
4 -69 -71 0
71 -69 -4 0
4 69 71 0
-71 0
72 73 0
74 73 0
-72 -74 -73 0
-70 73 -75 0
70 -73 -75 0
75 -73 -70 0
70 73 75 0
-75 0
74 -76 0
76 -74 0
74 77 0
78 77 0
-74 -78 -77 0
-5 77 -79 0
5 -77 -79 0
79 -77 -5 0
5 77 79 0
-79 0
80 81 0
82 81 0
-80 -82 -81 0
-6 81 -83 0
6 -81 -83 0
83 -81 -6 0
6 81 83 0
-83 0
84 85 0
86 85 0
-84 -86 -85 0
-82 85 -87 0
82 -85 -87 0
87 -85 -82 0
82 85 87 0
-87 0
88 89 0
90 89 0
-88 -90 -89 0
-86 89 -91 0
86 -89 -91 0
91 -89 -86 0
86 89 91 0
-91 0
92 93 0
94 93 0
-92 -94 -93 0
-90 93 -95 0
90 -93 -95 0
95 -93 -90 0
90 93 95 0
-95 0
96 97 0
98 97 0
-96 -98 -97 0
-94 97 -99 0
94 -97 -99 0
99 -97 -94 0
94 97 99 0
-99 0
92 100 0
96 100 0
101 100 0
-92 -96 -101 -100 0
-98 100 -102 0
98 -100 -102 0
102 -100 -98 0
98 100 102 0
-102 0
103 104 0
105 104 0
-103 -105 -104 0
-7 104 -106 0
7 -104 -106 0
106 -104 -7 0
7 104 106 0
-106 0
63 107 0
108 107 0
-63 -108 -107 0
-105 107 -109 0
105 -107 -109 0
109 -107 -105 0
105 107 109 0
-109 0
110 111 0
112 111 0
-110 -112 -111 0
-8 111 -113 0
8 -111 -113 0
113 -111 -8 0
8 111 113 0
-113 0
114 115 0
116 115 0
-114 -116 -115 0
-112 115 -117 0
112 -115 -117 0
117 -115 -112 0
112 115 117 0
-117 0
105 118 0
119 118 0
-105 -119 -118 0
-116 118 -120 0
116 -118 -120 0
120 -118 -116 0
116 118 120 0
-120 0
121 122 0
123 122 0
-121 -123 -122 0
-9 122 -124 0
9 -122 -124 0
124 -122 -9 0
9 122 124 0
-124 0
125 126 0
127 126 0
-125 -127 -126 0
-123 126 -128 0
123 -126 -128 0
128 -126 -123 0
123 126 128 0
-128 0
129 130 0
131 130 0
-129 -131 -130 0
-127 130 -132 0
127 -130 -132 0
132 -130 -127 0
127 130 132 0
-132 0
133 134 0
135 134 0
-133 -135 -134 0
-131 134 -136 0
131 -134 -136 0
136 -134 -131 0
131 134 136 0
-136 0
137 138 0
139 138 0
-137 -139 -138 0
-135 138 -140 0
135 -138 -140 0
140 -138 -135 0
135 138 140 0
-140 0
129 141 0
133 141 0
137 141 0
142 141 0
-143 0
-139 141 -144 0
139 -141 -144 0
144 -141 -139 0
139 141 144 0
-144 0
145 146 0
147 146 0
-145 -147 -146 0
-10 146 -148 0
10 -146 -148 0
148 -146 -10 0
10 146 148 0
-148 0
149 150 0
151 150 0
-149 -151 -150 0
-147 150 -152 0
147 -150 -152 0
152 -150 -147 0
147 150 152 0
-152 0
153 154 0
155 154 0
-153 -155 -154 0
-151 154 -156 0
151 -154 -156 0
156 -154 -151 0
151 154 156 0
-156 0
157 158 0
159 158 0
-157 -159 -158 0
-155 158 -160 0
155 -158 -160 0
160 -158 -155 0
155 158 160 0
-160 0
161 162 0
163 162 0
-161 -163 -162 0
-159 162 -164 0
159 -162 -164 0
164 -162 -159 0
159 162 164 0
-164 0
165 166 0
167 166 0
-165 -167 -166 0
-163 166 -168 0
163 -166 -168 0
168 -166 -163 0
163 166 168 0
-168 0
157 169 0
161 169 0
165 169 0
170 169 0
-171 0
-167 169 -172 0
167 -169 -172 0
172 -169 -167 0
167 169 172 0
-172 0
173 174 0
175 174 0
-173 -175 -174 0
-11 174 -176 0
11 -174 -176 0
176 -174 -11 0
11 174 176 0
-176 0
177 178 0
179 178 0
-177 -179 -178 0
-175 178 -180 0
175 -178 -180 0
180 -178 -175 0
175 178 180 0
-180 0
181 182 0
183 182 0
-181 -183 -182 0
-179 182 -184 0
179 -182 -184 0
184 -182 -179 0
179 182 184 0
-184 0
185 186 0
187 186 0
-185 -187 -186 0
-183 186 -188 0
183 -186 -188 0
188 -186 -183 0
183 186 188 0
-188 0
181 189 0
185 189 0
190 189 0
-181 -185 -190 -189 0
-187 189 -191 0
187 -189 -191 0
191 -189 -187 0
187 189 191 0
-191 0
192 193 0
194 193 0
-192 -194 -193 0
-12 193 -195 0
12 -193 -195 0
195 -193 -12 0
12 193 195 0
-195 0
196 197 0
198 197 0
-196 -198 -197 0
-194 197 -199 0
194 -197 -199 0
199 -197 -194 0
194 197 199 0
-199 0
200 201 0
202 201 0
-200 -202 -201 0
-198 201 -203 0
198 -201 -203 0
203 -201 -198 0
198 201 203 0
-203 0
204 205 0
206 205 0
-204 -206 -205 0
-202 205 -207 0
202 -205 -207 0
207 -205 -202 0
202 205 207 0
-207 0
208 209 0
210 209 0
-208 -210 -209 0
-206 209 -211 0
206 -209 -211 0
211 -209 -206 0
206 209 211 0
-211 0
212 213 0
214 213 0
-212 -214 -213 0
-210 213 -215 0
210 -213 -215 0
215 -213 -210 0
210 213 215 0
-215 0
216 217 0
218 217 0
-216 -218 -217 0
-214 217 -219 0
214 -217 -219 0
219 -217 -214 0
214 217 219 0
-219 0
208 220 0
212 220 0
216 220 0
221 220 0
-222 0
-218 220 -223 0
218 -220 -223 0
223 -220 -218 0
218 220 223 0
-223 0
224 225 0
226 225 0
-224 -226 -225 0
-13 225 -227 0
13 -225 -227 0
227 -225 -13 0
13 225 227 0
-227 0
228 229 0
230 229 0
-228 -230 -229 0
-226 229 -231 0
226 -229 -231 0
231 -229 -226 0
226 229 231 0
-231 0
232 233 0
234 233 0
-232 -234 -233 0
-230 233 -235 0
230 -233 -235 0
235 -233 -230 0
230 233 235 0
-235 0
236 237 0
238 237 0
-236 -238 -237 0
-234 237 -239 0
234 -237 -239 0
239 -237 -234 0
234 237 239 0
-239 0
240 241 0
242 241 0
-240 -242 -241 0
-238 241 -243 0
238 -241 -243 0
243 -241 -238 0
238 241 243 0
-243 0
244 245 0
246 245 0
-244 -246 -245 0
-242 245 -247 0
242 -245 -247 0
247 -245 -242 0
242 245 247 0
-247 0
236 248 0
240 248 0
244 248 0
249 248 0
-250 0
-246 248 -251 0
246 -248 -251 0
251 -248 -246 0
246 248 251 0
-251 0
252 253 0
254 253 0
-252 -254 -253 0
-14 253 -255 0
14 -253 -255 0
255 -253 -14 0
14 253 255 0
-255 0
256 257 0
258 257 0
-256 -258 -257 0
-254 257 -259 0
254 -257 -259 0
259 -257 -254 0
254 257 259 0
-259 0
155 260 0
261 260 0
-155 -261 -260 0
-258 260 -262 0
258 -260 -262 0
262 -260 -258 0
258 260 262 0
-262 0
263 264 0
265 264 0
-263 -265 -264 0
-15 264 -266 0
15 -264 -266 0
266 -264 -15 0
15 264 266 0
-266 0
267 268 0
269 268 0
-267 -269 -268 0
-265 268 -270 0
265 -268 -270 0
270 -268 -265 0
265 268 270 0
-270 0
271 272 0
273 272 0
-271 -273 -272 0
-269 272 -274 0
269 -272 -274 0
274 -272 -269 0
269 272 274 0
-274 0
275 276 0
277 276 0
-275 -277 -276 0
-273 276 -278 0
273 -276 -278 0
278 -276 -273 0
273 276 278 0
-278 0
279 280 0
281 280 0
-279 -281 -280 0
-277 280 -282 0
277 -280 -282 0
282 -280 -277 0
277 280 282 0
-282 0
279 283 0
284 283 0
-279 -284 -283 0
-281 283 -285 0
281 -283 -285 0
285 -283 -281 0
281 283 285 0
-285 0
286 287 0
288 287 0
-286 -288 -287 0
-16 287 -289 0
16 -287 -289 0
289 -287 -16 0
16 287 289 0
-289 0
290 291 0
292 291 0
-290 -292 -291 0
-288 291 -293 0
288 -291 -293 0
293 -291 -288 0
288 291 293 0
-293 0
294 295 0
296 295 0
-294 -296 -295 0
-292 295 -297 0
292 -295 -297 0
297 -295 -292 0
292 295 297 0
-297 0
298 299 0
300 299 0
-298 -300 -299 0
-296 299 -301 0
296 -299 -301 0
301 -299 -296 0
296 299 301 0
-301 0
302 303 0
304 303 0
-302 -304 -303 0
-300 303 -305 0
300 -303 -305 0
305 -303 -300 0
300 303 305 0
-305 0
306 307 0
308 307 0
-306 -308 -307 0
-304 307 -309 0
304 -307 -309 0
309 -307 -304 0
304 307 309 0
-309 0
302 310 0
306 310 0
311 310 0
-302 -306 -311 -310 0
-308 310 -312 0
308 -310 -312 0
312 -310 -308 0
308 310 312 0
-312 0
313 314 0
315 314 0
-313 -315 -314 0
-17 314 -316 0
17 -314 -316 0
316 -314 -17 0
17 314 316 0
-316 0
317 318 0
319 318 0
-317 -319 -318 0
-315 318 -320 0
315 -318 -320 0
320 -318 -315 0
315 318 320 0
-320 0
321 322 0
323 322 0
-321 -323 -322 0
-319 322 -324 0
319 -322 -324 0
324 -322 -319 0
319 322 324 0
-324 0
325 326 0
327 326 0
-325 -327 -326 0
-323 326 -328 0
323 -326 -328 0
328 -326 -323 0
323 326 328 0
-328 0
329 330 0
331 330 0
-329 -331 -330 0
-327 330 -332 0
327 -330 -332 0
332 -330 -327 0
327 330 332 0
-332 0
321 333 0
325 333 0
329 333 0
334 333 0
-335 0
-331 333 -336 0
331 -333 -336 0
336 -333 -331 0
331 333 336 0
-336 0
337 338 0
339 338 0
-337 -339 -338 0
-18 338 -340 0
18 -338 -340 0
340 -338 -18 0
18 338 340 0
-340 0
341 342 0
343 342 0
-341 -343 -342 0
-339 342 -344 0
339 -342 -344 0
344 -342 -339 0
339 342 344 0
-344 0
345 346 0
347 346 0
-345 -347 -346 0
-343 346 -348 0
343 -346 -348 0
348 -346 -343 0
343 346 348 0
-348 0
349 350 0
351 350 0
-349 -351 -350 0
-347 350 -352 0
347 -350 -352 0
352 -350 -347 0
347 350 352 0
-352 0
353 354 0
355 354 0
-353 -355 -354 0
-351 354 -356 0
351 -354 -356 0
356 -354 -351 0
351 354 356 0
-356 0
357 358 0
359 358 0
-357 -359 -358 0
-355 358 -360 0
355 -358 -360 0
360 -358 -355 0
355 358 360 0
-360 0
353 361 0
357 361 0
362 361 0
-353 -357 -362 -361 0
-359 361 -363 0
359 -361 -363 0
363 -361 -359 0
359 361 363 0
-363 0
364 365 0
366 365 0
-364 -366 -365 0
-19 365 -367 0
19 -365 -367 0
367 -365 -19 0
19 365 367 0
-367 0
368 369 0
370 369 0
-368 -370 -369 0
-366 369 -371 0
366 -369 -371 0
371 -369 -366 0
366 369 371 0
-371 0
372 373 0
374 373 0
-372 -374 -373 0
-370 373 -375 0
370 -373 -375 0
375 -373 -370 0
370 373 375 0
-375 0
376 377 0
378 377 0
-376 -378 -377 0
-374 377 -379 0
374 -377 -379 0
379 -377 -374 0
374 377 379 0
-379 0
380 381 0
382 381 0
-380 -382 -381 0
-378 381 -383 0
378 -381 -383 0
383 -381 -378 0
378 381 383 0
-383 0
376 384 0
380 384 0
385 384 0
-376 -380 -385 -384 0
-382 384 -386 0
382 -384 -386 0
386 -384 -382 0
382 384 386 0
-386 0
387 388 0
389 388 0
-387 -389 -388 0
-20 388 -390 0
20 -388 -390 0
390 -388 -20 0
20 388 390 0
-390 0
391 392 0
393 392 0
-391 -393 -392 0
-389 392 -394 0
389 -392 -394 0
394 -392 -389 0
389 392 394 0
-394 0
304 395 0
396 395 0
-304 -396 -395 0
-393 395 -397 0
393 -395 -397 0
397 -395 -393 0
393 395 397 0
-397 0
398 399 0
-400 399 0
-398 400 -399 0
21 -399 0
-21 399 0
401 402 0
-403 402 0
-401 403 -402 0
25 -402 0
-25 402 0
404 405 0
-406 405 0
-404 406 -405 0
30 -405 0
-30 405 0
407 408 0
-409 408 0
-407 409 -408 0
32 -408 0
-32 408 0
410 411 0
-412 411 0
-410 412 -411 0
36 -411 0
-36 411 0
413 414 0
-415 414 0
-413 415 -414 0
40 -414 0
-40 414 0
416 417 0
-418 417 0
-416 418 -417 0
41 -417 0
-41 417 0
419 420 0
-421 420 0
-419 421 -420 0
45 -420 0
-45 420 0
422 423 0
-424 423 0
-422 424 -423 0
49 -423 0
-49 423 0
425 426 0
-427 426 0
-425 427 -426 0
53 -426 0
-53 426 0
428 429 0
-430 429 0
-428 430 -429 0
57 -429 0
-57 429 0
431 432 0
-433 432 0
-431 433 -432 0
61 -432 0
-61 432 0
434 435 0
-436 435 0
-434 436 -435 0
66 -435 0
-66 435 0
437 438 0
-439 438 0
-437 439 -438 0
68 -438 0
-68 438 0
440 441 0
-442 441 0
-440 442 -441 0
72 -441 0
-72 441 0
443 444 0
-445 444 0
-443 445 -444 0
76 -444 0
-76 444 0
446 447 0
-448 447 0
-446 448 -447 0
78 -447 0
-78 447 0
449 450 0
-451 450 0
-449 451 -450 0
80 -450 0
-80 450 0
452 453 0
-454 453 0
-452 454 -453 0
84 -453 0
-84 453 0
455 456 0
-457 456 0
-455 457 -456 0
88 -456 0
-88 456 0
458 459 0
-460 459 0
-458 460 -459 0
92 -459 0
-92 459 0
461 462 0
-463 462 0
-461 463 -462 0
96 -462 0
-96 462 0
464 465 0
-466 465 0
-464 466 -465 0
101 -465 0
-101 465 0
467 468 0
-469 468 0
-467 469 -468 0
103 -468 0
-103 468 0
470 471 0
-472 471 0
-470 472 -471 0
108 -471 0
-108 471 0
473 474 0
-475 474 0
-473 475 -474 0
110 -474 0
-110 474 0
476 477 0
-478 477 0
-476 478 -477 0
114 -477 0
-114 477 0
479 480 0
-481 480 0
-479 481 -480 0
119 -480 0
-119 480 0
482 483 0
-484 483 0
-482 484 -483 0
121 -483 0
-121 483 0
485 486 0
-487 486 0
-485 487 -486 0
125 -486 0
-125 486 0
488 489 0
-490 489 0
-488 490 -489 0
129 -489 0
-129 489 0
491 492 0
-493 492 0
-491 493 -492 0
133 -492 0
-133 492 0
494 495 0
-496 495 0
-494 496 -495 0
137 -495 0
-137 495 0
497 498 0
-499 498 0
-497 499 -498 0
142 -498 0
-142 498 0
500 501 0
-502 501 0
-500 502 -501 0
145 -501 0
-145 501 0
503 504 0
-505 504 0
-503 505 -504 0
149 -504 0
-149 504 0
506 507 0
-508 507 0
-506 508 -507 0
153 -507 0
-153 507 0
509 510 0
-511 510 0
-509 511 -510 0
157 -510 0
-157 510 0
512 513 0
-514 513 0
-512 514 -513 0
161 -513 0
-161 513 0
515 516 0
-517 516 0
-515 517 -516 0
165 -516 0
-165 516 0
518 519 0
-520 519 0
-518 520 -519 0
170 -519 0
-170 519 0
521 522 0
522 -523 0
-521 523 -522 0
173 -522 0
-173 522 0
524 525 0
-526 525 0
-524 526 -525 0
177 -525 0
-177 525 0
527 528 0
-529 528 0
-527 529 -528 0
181 -528 0
-181 528 0
530 531 0
-532 531 0
-530 532 -531 0
185 -531 0
-185 531 0
533 534 0
-535 534 0
-533 535 -534 0
190 -534 0
-190 534 0
536 537 0
-538 537 0
-536 538 -537 0
192 -537 0
-192 537 0
539 540 0
540 -541 0
-539 541 -540 0
196 -540 0
-196 540 0
542 543 0
-544 543 0
-542 544 -543 0
200 -543 0
-200 543 0
545 546 0
546 -547 0
-545 547 -546 0
204 -546 0
-204 546 0
548 549 0
-550 549 0
-548 550 -549 0
208 -549 0
-208 549 0
551 552 0
-553 552 0
-551 553 -552 0
212 -552 0
-212 552 0
554 555 0
555 -556 0
-554 556 -555 0
216 -555 0
-216 555 0
557 558 0
-559 558 0
-557 559 -558 0
221 -558 0
-221 558 0
560 561 0
-562 561 0
-560 562 -561 0
224 -561 0
-224 561 0
563 564 0
564 -565 0
-563 565 -564 0
228 -564 0
-228 564 0
566 567 0
-568 567 0
-566 568 -567 0
232 -567 0
-232 567 0
569 570 0
-571 570 0
-569 571 -570 0
236 -570 0
-236 570 0
572 573 0
573 -574 0
-572 574 -573 0
240 -573 0
-240 573 0
575 576 0
-577 576 0
-575 577 -576 0
244 -576 0
-244 576 0
578 579 0
579 -580 0
-578 580 -579 0
249 -579 0
-249 579 0
581 582 0
-583 582 0
-581 583 -582 0
252 -582 0
-252 582 0
584 585 0
-586 585 0
-584 586 -585 0
256 -585 0
-256 585 0
587 588 0
588 -589 0
-587 589 -588 0
261 -588 0
-261 588 0
590 591 0
591 -592 0
-590 592 -591 0
263 -591 0
-263 591 0
593 594 0
-595 594 0
-593 595 -594 0
267 -594 0
-267 594 0
596 597 0
-598 597 0
-596 598 -597 0
271 -597 0
-271 597 0
599 600 0
-601 600 0
-599 601 -600 0
275 -600 0
-275 600 0
602 603 0
-604 603 0
-602 604 -603 0
279 -603 0
-279 603 0
605 606 0
-607 606 0
-605 607 -606 0
284 -606 0
-284 606 0
608 609 0
-610 609 0
-608 610 -609 0
286 -609 0
-286 609 0
611 612 0
-613 612 0
-611 613 -612 0
290 -612 0
-290 612 0
614 615 0
615 -616 0
-614 616 -615 0
294 -615 0
-294 615 0
617 618 0
-619 618 0
-617 619 -618 0
298 -618 0
-298 618 0
620 621 0
621 -622 0
-620 622 -621 0
302 -621 0
-302 621 0
623 624 0
624 -625 0
-623 625 -624 0
306 -624 0
-306 624 0
626 627 0
-628 627 0
-626 628 -627 0
311 -627 0
-311 627 0
629 630 0
-631 630 0
-629 631 -630 0
313 -630 0
-313 630 0
632 633 0
-634 633 0
-632 634 -633 0
317 -633 0
-317 633 0
635 636 0
-637 636 0
-635 637 -636 0
321 -636 0
-321 636 0
638 639 0
-640 639 0
-638 640 -639 0
325 -639 0
-325 639 0
641 642 0
-643 642 0
-641 643 -642 0
329 -642 0
-329 642 0
644 645 0
645 -646 0
-644 646 -645 0
334 -645 0
-334 645 0
647 648 0
-649 648 0
-647 649 -648 0
337 -648 0
-337 648 0
650 651 0
-652 651 0
-650 652 -651 0
341 -651 0
-341 651 0
653 654 0
-655 654 0
-653 655 -654 0
345 -654 0
-345 654 0
656 657 0
657 -658 0
-656 658 -657 0
349 -657 0
-349 657 0
659 660 0
660 -661 0
-659 661 -660 0
353 -660 0
-353 660 0
662 663 0
-664 663 0
-662 664 -663 0
357 -663 0
-357 663 0
665 666 0
-667 666 0
-665 667 -666 0
362 -666 0
-362 666 0
668 669 0
-670 669 0
-668 670 -669 0
364 -669 0
-364 669 0
671 672 0
-673 672 0
-671 673 -672 0
368 -672 0
-368 672 0
674 675 0
-676 675 0
-674 676 -675 0
372 -675 0
-372 675 0
677 678 0
678 -679 0
-677 679 -678 0
376 -678 0
-376 678 0
680 681 0
-682 681 0
-680 682 -681 0
380 -681 0
-380 681 0
683 684 0
-685 684 0
-683 685 -684 0
385 -684 0
-385 684 0
686 687 0
-688 687 0
-686 688 -687 0
387 -687 0
-387 687 0
689 690 0
-691 690 0
-689 691 -690 0
391 -690 0
-391 690 0
692 693 0
-694 693 0
-692 694 -693 0
396 -693 0
-396 693 0
398 0
401 0
-404 0
-407 0
410 0
-413 0
416 0
-419 0
422 0
-425 0
-428 0
-431 0
434 0
-437 0
-440 0
443 0
-446 0
-449 0
452 0
455 0
458 0
461 0
-464 0
-467 0
470 0
-473 0
-476 0
-479 0
482 0
485 0
-488 0
491 0
494 0
-497 0
-500 0
-503 0
-506 0
509 0
-512 0
515 0
518 0
521 0
-524 0
-527 0
-530 0
-533 0
-536 0
539 0
-542 0
545 0
-548 0
-551 0
554 0
557 0
560 0
563 0
-566 0
569 0
572 0
-575 0
578 0
-581 0
-584 0
587 0
590 0
-593 0
596 0
-599 0
-602 0
-605 0
-608 0
-611 0
614 0
-617 0
620 0
623 0
-626 0
629 0
-632 0
635 0
638 0
-641 0
644 0
-647 0
-650 0
-653 0
656 0
659 0
-662 0
665 0
-668 0
671 0
-674 0
677 0
-680 0
-683 0
-686 0
-689 0
-692 0
-695 -696 0
-695 -400 0
-695 -403 0
-695 -406 0
-695 -409 0
-695 -412 0
-695 -415 0
-695 -418 0
-695 -421 0
-695 -424 0
-695 -427 0
-695 -430 0
-695 -433 0
-695 -436 0
-695 -439 0
442 -695 0
-695 -445 0
-695 -448 0
451 -695 0
-695 -454 0
-695 -457 0
-695 -460 0
-695 -463 0
-695 -466 0
-695 -469 0
-695 -472 0
-695 -475 0
-695 -478 0
481 -695 0
-695 -484 0
-695 -487 0
-695 -490 0
-695 -493 0
-695 -496 0
-695 -499 0
-695 -502 0
505 -695 0
508 -695 0
-695 -511 0
-695 -514 0
-695 -517 0
-695 -520 0
523 -695 0
526 -695 0
529 -695 0
-695 -532 0
-695 -535 0
538 -695 0
541 -695 0
-695 -544 0
547 -695 0
-695 -550 0
553 -695 0
556 -695 0
-695 -559 0
-695 -562 0
565 -695 0
-695 -568 0
-695 -571 0
574 -695 0
577 -695 0
580 -695 0
-695 -583 0
586 -695 0
589 -695 0
592 -695 0
595 -695 0
-695 -598 0
601 -695 0
604 -695 0
-695 -607 0
610 -695 0
613 -695 0
616 -695 0
619 -695 0
622 -695 0
625 -695 0
-695 -628 0
-695 -631 0
634 -695 0
-695 -637 0
-695 -640 0
643 -695 0
646 -695 0
649 -695 0
-695 -652 0
655 -695 0
658 -695 0
661 -695 0
-695 -664 0
-695 -667 0
670 -695 0
-695 -673 0
676 -695 0
679 -695 0
-695 -682 0
-695 -685 0
-695 -688 0
-695 -691 0
-695 -694 0
400 -696 0
403 -696 0
-696 -406 0
-696 -409 0
412 -696 0
-696 -415 0
418 -696 0
-696 -421 0
424 -696 0
-696 -427 0
-696 -430 0
-696 -433 0
436 -696 0
-696 -439 0
-696 -442 0
445 -696 0
-696 -448 0
-696 -451 0
454 -696 0
457 -696 0
460 -696 0
463 -696 0
-696 -466 0
-696 -469 0
472 -696 0
-696 -475 0
-696 -478 0
-696 -481 0
484 -696 0
487 -696 0
-696 -490 0
493 -696 0
496 -696 0
-696 -499 0
-696 -502 0
-696 -505 0
-696 -508 0
511 -696 0
-696 -514 0
517 -696 0
520 -696 0
523 -696 0
-696 -526 0
-696 -529 0
-696 -532 0
-696 -535 0
-696 -538 0
541 -696 0
-696 -544 0
547 -696 0
-696 -550 0
-696 -553 0
556 -696 0
559 -696 0
562 -696 0
565 -696 0
-696 -568 0
571 -696 0
574 -696 0
-696 -577 0
580 -696 0
-696 -583 0
-696 -586 0
589 -696 0
592 -696 0
-696 -595 0
598 -696 0
-696 -601 0
-696 -604 0
-696 -607 0
-696 -610 0
-696 -613 0
616 -696 0
-696 -619 0
622 -696 0
625 -696 0
-696 -628 0
631 -696 0
-696 -634 0
637 -696 0
640 -696 0
-696 -643 0
646 -696 0
-696 -649 0
-696 -652 0
-696 -655 0
658 -696 0
661 -696 0
-696 -664 0
667 -696 0
-696 -670 0
673 -696 0
-696 -676 0
679 -696 0
-696 -682 0
-696 -685 0
-696 -688 0
-696 -691 0
-696 -694 0
695 696 0
-697 0
-698 0
-699 0
-700 0
-701 0
-702 0
-703 0
-704 0
